60019
6,86,201,424,551,554,653,765,827,979,1005,1009,1014,1061,1191,1261,1305,1336,1437,1438,1711,1861,1873,1969,2215,2347,2369,2376,2759,2853,2884,2914,3009,3098,3159,3216,3275,3398,3424,3583,3674,3980,4065,4127,4166,4431,4500,4580,4622,4739,4828,5071,5093,5141,5278,5418,5431,5624,5723,5762,5810,5859,5868,5945,6394,6480,6519,6652,6807,6907,6924,6974,7138,7139,7198,7230,7248,7307,7322,7387,7676,7706,7729,7797,7853,7874,7973,8036,8057,8150,8353,8386,8558,8650,8676,8693,8747,8768,9133,9233,9368,9414,9610,9748,9985
